
Comment here #messy messy
ALGO = Fast #stuff here
whats up


EDIFF = 0.00075
ENCUT = 520
	IBRION = 2
ICHARG = 1
ISiF = 3
IsmeAR = -5
  ISPIN = 2
LORBIT = 11 #comment with = sign



LREAL = Auto
LWAVE = False
magmom = 15*0.6
NELM = 100                   
NSW = 99
    PREC = Accurate

  #lonely sigma with = sign==!

 x = y #==
 f   #= 
SIGMA = 0.05





