Comment revised
NSW = 181 #here is a comment
Here is another comment
#and another
one more comment.
ISIF = 3
PREC = accurate
EDIFF = 1e-06
